
Gurobi 9.5.2 (mac64[arm]) logging started Thu Nov 10 20:12:20 2022

Set parameter LogFile to value "./ccga_results/2022-11-10 20-12-02-705/FMP_[2022-11-10 20:12:20.267]_gurobi_log.txt"

Gurobi 9.5.2 (mac64[arm]) logging started Thu Nov 10 20:12:20 2022

Set parameter LogFile to value "./ccga_results/2022-11-10 20-12-02-705/FMP_[2022-11-10 20:12:20.267]_gurobi_log.txt"
Set parameter TimeLimit to value 180
Gurobi Optimizer version 9.5.2 build v9.5.2rc0 (mac64[arm])
Thread count: 8 physical cores, 8 logical processors, using up to 8 threads
Optimize a model with 3269 rows, 1323 columns and 11127 nonzeros
Model fingerprint: 0xe852a15b
Variable types: 1275 continuous, 48 integer (48 binary)
Coefficient statistics:
  Matrix range     [3e-02, 1e+08]
  Objective range  [1e+00, 1e+00]
  Bounds range     [1e+00, 1e+00]
  RHS range        [1e+00, 1e+08]
Presolve removed 988 rows and 334 columns
Presolve time: 0.01s
Presolved: 2281 rows, 989 columns, 7787 nonzeros
Variable types: 965 continuous, 24 integer (24 binary)
Found heuristic solution: objective -0.0000000

Root relaxation: objective 6.907092e+02, 2527 iterations, 0.05 seconds (0.10 work units)

    Nodes    |    Current Node    |     Objective Bounds      |     Work
 Expl Unexpl |  Obj  Depth IntInf | Incumbent    BestBd   Gap | It/Node Time

     0     0  690.70917    0   24   -0.00000  690.70917      -     -    0s
H    0     0                      10.8223320  690.70917  6282%     -    0s
     0     0  429.52140    0   24   10.82233  429.52140  3869%     -    0s
H    0     0                      38.8829194  429.52140  1005%     -    0s
H    0     0                      81.3848433  415.81306   411%     -    0s
     0     0  415.81306    0   24   81.38484  415.81306   411%     -    0s
     0     0  405.45902    0   24   81.38484  405.45902   398%     -    0s
     0     0  404.95267    0   24   81.38484  404.95267   398%     -    0s
     0     0  306.92710    0   24   81.38484  306.92710   277%     -    0s
     0     0  270.81227    0   24   81.38484  270.81227   233%     -    0s
     0     0  241.81862    0   24   81.38484  241.81862   197%     -    0s
     0     0  240.04723    0   24   81.38484  240.04723   195%     -    0s
     0     0  239.50462    0   24   81.38484  239.50462   194%     -    0s
     0     0  239.36224    0   24   81.38484  239.36224   194%     -    0s
     0     0  172.77887    0   24   81.38484  172.77887   112%     -    0s
     0     0  160.33971    0   23   81.38484  160.33971  97.0%     -    0s
     0     0  157.20564    0   24   81.38484  157.20564  93.2%     -    0s
     0     0  156.80003    0   24   81.38484  156.80003  92.7%     -    0s
     0     0  156.69264    0   24   81.38484  156.69264  92.5%     -    0s
     0     0  156.49965    0   24   81.38484  156.49965  92.3%     -    0s
     0     0  126.20737    0   24   81.38484  126.20737  55.1%     -    0s
     0     0  120.33156    0   24   81.38484  120.33156  47.9%     -    0s
     0     0  119.02039    0   24   81.38484  119.02039  46.2%     -    0s
     0     0  119.01202    0   24   81.38484  119.01202  46.2%     -    0s
     0     0  110.61981    0   23   81.38484  110.61981  35.9%     -    0s
     0     2  110.61981    0   23   81.38484  110.61981  35.9%     -    0s

Cutting planes:
  Gomory: 5
  MIR: 18
  Flow cover: 7
  RLT: 104

Explored 14 nodes (5251 simplex iterations) in 0.71 seconds (1.09 work units)
Thread count was 8 (of 8 available processors)

Solution count 4: 81.3848 38.8829 10.8223 -0 

Optimal solution found (tolerance 1.00e-03)
Best objective 8.138484327148e+01, best bound 8.138484327148e+01, gap 0.0000%

User-callback calls 877, time in user-callback 0.00 sec
